optim conp comp prop phonon

Cell
12.10471055   3.04135493   5.89712947  90.00000000 104.41526488  90.00000000
 
fractional   
Ga    core  0.090400000  0.000000000  0.794799999  
Ga    core  0.341036369  0.000000000  0.684185824  
O     core  0.159874669  0.000000000  0.106128848 
O     core  0.493560426  0.000000000  0.253660668 
O     core  0.827145271  0.000000000  0.431439145 
Ga    core  0.590400000  0.500000000  0.794799999  
Ga    core  0.841036369  0.500000000  0.684185824  
O     core  0.659874669  0.500000000  0.106128848 
O     core  0.993560426  0.500000000  0.253660668 
O     core  0.327145271  0.500000000  0.431439145 
Ga    core  0.908383089  0.000000000  0.206925715  
Ga    core  0.657746719  0.000000000  0.317539891  
O     core  0.838908420  0.000000000  0.895596867 
O     core  0.505222663  0.000000000  0.748065047 
O     core  0.171637817  0.000000000  0.570286570 
Ga    core  0.408383089  0.500000000  0.206925715  
Ga    core  0.157746719  0.500000000  0.317539891  
O     core  0.338908420  0.500000000  0.895596867 
O     core  0.005222663  0.500000000  0.748065047 
O     core  0.671637817  0.500000000  0.570286570 

species									
Ga  core    1.8
O   core   -1.2
									
Buckingham		
Ga  core  Ga   core   139105.12     0.207865   170.88134    0.0000  15.0000  
Ga  core  O    core   412.54996     0.298512   0.000000     0.0000  15.0000  
O   core  O    core   1388.7730     0.362600   175.00000    0.0000  15.0000  

morse
O   core  Ga  core   0.44102536  2.5651   1.91283 0.0 0.0 15.0  								 

dump para.txt

disp 1 51
0 0 0 to 0.5 0 0 

output phonon gama-X.disp
